(declare-const X String)
; \swww\.fast-finder\.com[^\n\r]*\x2Fbar_pl\x2Fchk\.fcgi\d+Toolbar
(assert (not (str.in_re X (re.++ (re.union (str.to_re " ") (str.to_re "\u{9}") (str.to_re "\u{a}") (str.to_re "\u{c}") (str.to_re "\u{d}")) (str.to_re "www.fast-finder.com") (re.* (re.union (str.to_re "\u{a}") (str.to_re "\u{d}"))) (str.to_re "/bar_pl/chk.fcgi") (re.+ (re.range "0" "9")) (str.to_re "Toolbar\u{a}")))))
; ^(.){0,20}$
(assert (not (str.in_re X (re.++ ((_ re.loop 0 20) re.allchar) (str.to_re "\u{a}")))))
(check-sat)

(exit)
